DIMACS2
40 346 512 558 460 402 170 431 635 225 437 386 329 34 627 500 587 184 176 190 219 495 428 624 313 291 325 66 351 365 5 581 264 601 254 62 13 516 169 514 262
p edge 640 2778
e 0 363 1.0
e 0 177 1.0
e 0 629 1.0
e 0 8 2.0
e 1 254 2.0
e 1 189 1.0
e 1 393 3.0
e 1 192 2.0
e 2 317 1.0
e 2 175 1.0
e 2 91 1.0
e 2 41 1.0
e 3 464 1.0
e 3 260 1.0
e 3 591 1.0
e 3 511 1.0
e 4 587 7.0
e 4 256 1.0
e 4 149 1.0
e 4 410 2.0
e 5 31 11.0
e 5 458 44.0
e 5 270 9.0
e 5 230 3.0
e 5 428 42.0
e 5 291 7.0
e 5 169 48.0
e 5 184 17.0
e 5 477 22.0
e 5 170 29.0
e 5 558 42.0
e 6 611 2.0
e 6 305 1.0
e 6 432 1.0
e 6 336 1.0
e 7 4 2.0
e 7 317 1.0
e 7 181 1.0
e 7 213 1.0
e 8 599 1.0
e 8 281 1.0
e 8 560 1.0
e 8 34 14.0
e 9 90 1.0
e 9 577 1.0
e 9 573 2.0
e 9 469 1.0
e 10 467 1.0
e 10 249 2.0
e 10 416 2.0
e 10 472 1.0
e 11 457 1.0
e 11 318 2.0
e 11 102 1.0
e 11 30 2.0
e 12 450 1.0
e 12 112 1.0
e 12 521 1.0
e 12 423 1.0
e 13 521 2.0
e 13 153 25.0
e 13 275 35.0
e 13 332 27.0
e 13 219 40.0
e 13 635 41.0
e 13 460 45.0
e 13 587 28.0
e 13 346 11.0
e 13 62 1.0
e 13 598 5.0
e 13 254 26.0
e 13 262 17.0
e 13 624 40.0
e 14 407 2.0
e 14 409 1.0
e 14 136 1.0
e 14 490 1.0
e 15 93 1.0
e 15 494 2.0
e 15 52 2.0
e 15 495 8.0
e 16 140 1.0
e 16 607 1.0
e 16 53 1.0
e 16 568 1.0
e 17 388 1.0
e 17 140 1.0
e 17 6 1.0
e 17 247 1.0
e 18 380 1.0
e 18 61 1.0
e 18 431 36.0
e 18 605 1.0
e 19 516 19.0
e 19 12 1.0
e 19 375 1.0
e 19 389 1.0
e 20 81 1.0
e 20 74 2.0
e 20 44 1.0
e 20 495 35.0
e 21 616 1.0
e 21 241 1.0
e 21 363 1.0
e 21 101 1.0
e 22 593 2.0
e 22 207 1.0
e 22 399 1.0
e 22 422 1.0
e 23 633 1.0
e 23 325 41.0
e 23 576 1.0
e 23 508 1.0
e 24 519 1.0
e 24 625 2.0
e 24 344 2.0
e 24 230 1.0
e 25 67 1.0
e 25 583 1.0
e 25 54 1.0
e 25 527 1.0
e 26 591 1.0
e 26 622 1.0
e 26 125 1.0
e 26 150 1.0
e 27 562 1.0
e 27 403 2.0
e 27 335 2.0
e 27 9 1.0
e 28 609 1.0
e 28 129 1.0
e 28 200 1.0
e 28 594 1.0
e 29 293 2.0
e 29 383 1.0
e 29 379 1.0
e 29 393 1.0
e 30 635 38.0
e 30 541 1.0
e 30 177 1.0
e 30 368 1.0
e 31 220 1.0
e 31 457 1.0
e 31 373 1.0
e 31 153 1.0
e 32 462 1.0
e 32 517 1.0
e 32 357 2.0
e 32 161 1.0
e 33 61 1.0
e 33 436 1.0
e 33 415 1.0
e 33 233 1.0
e 34 240 31.0
e 34 543 43.0
e 34 174 28.0
e 34 528 16.0
e 34 581 5.0
e 34 587 13.0
e 34 219 36.0
e 34 169 25.0
e 35 201 1.0
e 35 112 1.0
e 35 558 28.0
e 35 616 2.0
e 36 468 1.0
e 36 10 1.0
e 36 436 1.0
e 36 175 1.0
e 37 502 1.0
e 37 55 1.0
e 37 38 2.0
e 37 574 1.0
e 38 87 1.0
e 38 179 1.0
e 38 507 1.0
e 39 587 46.0
e 39 341 2.0
e 39 433 1.0
e 39 521 1.0
e 40 210 2.0
e 40 193 1.0
e 40 247 3.0
e 40 456 3.0
e 41 539 1.0
e 41 211 1.0
e 41 147 1.0
e 41 172 1.0
e 42 286 1.0
e 42 318 1.0
e 42 378 2.0
e 42 208 2.0
e 43 627 27.0
e 43 38 1.0
e 43 107 1.0
e 43 536 1.0
e 44 316 1.0
e 44 270 1.0
e 44 541 1.0
e 44 576 1.0
e 45 244 1.0
e 45 496 1.0
e 45 146 1.0
e 45 86 1.0
e 46 546 1.0
e 46 388 1.0
e 46 420 1.0
e 46 136 1.0
e 47 124 1.0
e 47 4 2.0
e 47 490 1.0
e 47 529 1.0
e 48 147 2.0
e 48 187 1.0
e 48 466 2.0
e 48 165 2.0
e 49 350 1.0
e 49 98 1.0
e 49 508 1.0
e 49 430 1.0
e 50 430 1.0
e 50 476 2.0
e 50 254 41.0
e 50 422 1.0
e 51 25 1.0
e 51 398 1.0
e 51 521 1.0
e 51 196 1.0
e 52 618 1.0
e 52 391 1.0
e 52 7 1.0
e 52 140 1.0
e 53 70 2.0
e 53 14 1.0
e 53 147 1.0
e 53 393 1.0
e 54 239 2.0
e 54 193 2.0
e 54 313 47.0
e 54 301 1.0
e 55 346 24.0
e 55 139 2.0
e 55 255 1.0
e 55 633 1.0
e 56 117 3.0
e 56 300 1.0
e 56 374 1.0
e 56 630 1.0
e 57 329 41.0
e 57 140 2.0
e 57 85 1.0
e 57 602 1.0
e 58 339 1.0
e 58 371 1.0
e 58 131 1.0
e 58 275 2.0
e 59 198 1.0
e 59 638 1.0
e 59 410 2.0
e 59 265 1.0
e 60 107 1.0
e 60 113 2.0
e 60 317 1.0
e 60 407 1.0
e 61 592 1.0
e 61 172 1.0
e 61 300 1.0
e 61 163 1.0
e 62 381 30.0
e 62 106 2.0
e 62 435 9.0
e 62 472 47.0
e 62 83 9.0
e 62 581 43.0
e 62 346 18.0
e 62 169 18.0
e 62 460 40.0
e 62 170 48.0
e 62 176 38.0
e 62 386 49.0
e 62 558 43.0
e 63 22 1.0
e 63 77 1.0
e 63 212 1.0
e 63 206 1.0
e 64 637 2.0
e 64 572 1.0
e 64 588 1.0
e 64 525 1.0
e 65 251 2.0
e 65 417 1.0
e 65 416 2.0
e 65 576 2.0
e 66 152 48.0
e 66 338 47.0
e 66 544 14.0
e 66 62 1.0
e 66 558 23.0
e 66 219 4.0
e 66 184 39.0
e 66 325 44.0
e 66 581 32.0
e 66 291 44.0
e 67 26 2.0
e 67 519 2.0
e 67 34 33.0
e 67 129 1.0
e 68 142 2.0
e 68 176 18.0
e 68 558 3.0
e 68 462 1.0
e 69 479 1.0
e 69 388 1.0
e 69 274 1.0
e 69 140 2.0
e 70 414 1.0
e 70 15 1.0
e 70 362 1.0
e 70 223 2.0
e 71 250 1.0
e 71 8 1.0
e 71 248 1.0
e 71 166 1.0
e 72 311 1.0
e 72 457 1.0
e 72 583 1.0
e 72 147 1.0
e 73 474 1.0
e 73 159 1.0
e 73 523 1.0
e 73 402 37.0
e 74 442 1.0
e 74 288 1.0
e 74 494 3.0
e 74 70 1.0
e 75 511 1.0
e 75 427 1.0
e 75 601 29.0
e 75 340 1.0
e 76 355 2.0
e 76 444 1.0
e 76 521 1.0
e 76 356 1.0
e 77 53 1.0
e 77 505 1.0
e 77 367 2.0
e 77 349 1.0
e 78 195 1.0
e 78 262 18.0
e 78 64 2.0
e 78 255 1.0
e 79 390 1.0
e 79 352 1.0
e 79 123 1.0
e 79 445 1.0
e 80 532 1.0
e 80 331 1.0
e 80 495 23.0
e 80 82 1.0
e 81 599 1.0
e 81 523 1.0
e 81 110 1.0
e 81 80 1.0
e 82 372 1.0
e 82 383 1.0
e 82 498 1.0
e 82 31 1.0
e 83 590 1.0
e 83 296 1.0
e 83 29 2.0
e 83 545 1.0
e 84 17 1.0
e 84 622 1.0
e 84 247 2.0
e 84 164 2.0
e 85 265 2.0
e 85 169 24.0
e 85 231 1.0
e 85 318 2.0
e 86 449 1.0
e 86 427 1.0
e 86 582 1.0
e 86 289 1.0
e 87 189 1.0
e 87 86 2.0
e 87 64 2.0
e 87 169 6.0
e 88 271 1.0
e 88 10 1.0
e 88 175 1.0
e 88 437 35.0
e 89 627 35.0
e 89 541 1.0
e 89 441 1.0
e 89 174 2.0
e 90 51 1.0
e 90 80 1.0
e 90 568 1.0
e 90 446 1.0
e 91 141 1.0
e 91 46 1.0
e 91 596 1.0
e 91 395 2.0
e 92 376 2.0
e 92 388 1.0
e 92 105 1.0
e 92 537 1.0
e 93 332 1.0
e 93 153 1.0
e 93 221 1.0
e 93 126 1.0
e 94 236 1.0
e 94 112 1.0
e 94 272 1.0
e 94 514 16.0
e 95 68 1.0
e 95 348 1.0
e 95 363 1.0
e 95 334 1.0
e 96 522 2.0
e 96 336 1.0
e 96 538 1.0
e 96 101 1.0
e 97 237 3.0
e 97 285 2.0
e 97 90 2.0
e 97 417 2.0
e 98 623 1.0
e 98 160 1.0
e 98 66 31.0
e 98 347 1.0
e 99 64 2.0
e 99 630 2.0
e 99 268 1.0
e 99 585 1.0
e 100 467 1.0
e 100 635 13.0
e 100 428 6.0
e 100 267 2.0
e 101 338 1.0
e 101 302 1.0
e 101 356 1.0
e 101 540 1.0
e 102 164 1.0
e 102 453 1.0
e 102 503 2.0
e 102 82 1.0
e 103 213 1.0
e 103 423 1.0
e 103 371 1.0
e 103 437 47.0
e 104 576 1.0
e 104 498 1.0
e 104 55 1.0
e 104 418 1.0
e 105 282 1.0
e 105 230 1.0
e 105 252 1.0
e 105 333 2.0
e 106 72 1.0
e 106 473 2.0
e 106 332 1.0
e 106 150 1.0
e 107 330 1.0
e 107 220 2.0
e 107 310 1.0
e 107 576 1.0
e 108 475 1.0
e 108 121 1.0
e 108 402 29.0
e 108 173 1.0
e 109 305 2.0
e 109 524 1.0
e 109 152 1.0
e 109 239 1.0
e 110 327 1.0
e 110 56 1.0
e 110 248 1.0
e 110 339 1.0
e 111 9 2.0
e 111 274 2.0
e 111 424 2.0
e 111 67 2.0
e 112 471 1.0
e 112 327 1.0
e 112 23 1.0
e 112 578 1.0
e 113 396 2.0
e 113 254 23.0
e 113 620 1.0
e 113 320 1.0
e 114 635 8.0
e 114 592 1.0
e 114 247 1.0
e 114 553 1.0
e 115 310 1.0
e 115 303 1.0
e 115 26 1.0
e 115 469 3.0
e 116 398 2.0
e 116 533 1.0
e 116 529 2.0
e 116 358 1.0
e 117 579 1.0
e 117 53 1.0
e 117 181 1.0
e 117 437 33.0
e 118 527 1.0
e 118 231 1.0
e 118 142 1.0
e 118 279 1.0
e 119 217 1.0
e 119 496 2.0
e 119 505 1.0
e 119 285 1.0
e 120 489 1.0
e 120 440 3.0
e 120 327 1.0
e 120 247 2.0
e 121 558 21.0
e 121 308 1.0
e 121 174 1.0
e 121 632 1.0
e 122 430 1.0
e 122 96 2.0
e 122 139 1.0
e 122 522 1.0
e 123 271 1.0
e 123 69 1.0
e 123 395 1.0
e 123 554 2.0
e 124 49 1.0
e 124 197 1.0
e 124 417 1.0
e 124 498 1.0
e 125 239 1.0
e 125 286 1.0
e 125 582 1.0
e 125 466 1.0
e 126 608 1.0
e 126 185 1.0
e 126 261 1.0
e 126 554 1.0
e 127 278 1.0
e 127 584 1.0
e 127 34 9.0
e 127 118 1.0
e 128 244 1.0
e 128 226 1.0
e 128 324 1.0
e 128 301 1.0
e 129 588 1.0
e 129 85 1.0
e 129 409 1.0
e 129 7 1.0
e 130 428 35.0
e 130 397 1.0
e 130 350 1.0
e 130 535 1.0
e 131 305 2.0
e 131 536 1.0
e 131 413 1.0
e 131 5 35.0
e 132 26 1.0
e 132 409 1.0
e 132 599 1.0
e 132 349 1.0
e 133 372 1.0
e 133 155 1.0
e 133 194 1.0
e 133 35 1.0
e 134 333 1.0
e 134 239 1.0
e 134 72 1.0
e 134 259 2.0
e 135 461 2.0
e 135 464 1.0
e 135 309 1.0
e 135 225 36.0
e 136 478 2.0
e 136 257 1.0
e 136 80 1.0
e 136 228 2.0
e 137 590 1.0
e 137 268 2.0
e 137 505 1.0
e 137 47 1.0
e 138 392 1.0
e 138 75 1.0
e 138 216 1.0
e 138 156 3.0
e 139 434 1.0
e 139 246 2.0
e 139 36 1.0
e 139 178 2.0
e 140 634 1.0
e 140 594 1.0
e 140 236 1.0
e 140 638 1.0
e 141 449 1.0
e 141 2 1.0
e 141 43 1.0
e 141 395 3.0
e 142 189 1.0
e 142 556 3.0
e 142 43 2.0
e 142 452 2.0
e 143 610 1.0
e 143 80 1.0
e 143 229 1.0
e 143 409 1.0
e 144 260 2.0
e 144 172 1.0
e 144 609 1.0
e 144 96 1.0
e 145 335 1.0
e 145 409 1.0
e 145 505 1.0
e 145 109 2.0
e 146 393 2.0
e 146 442 1.0
e 146 371 3.0
e 146 65 1.0
e 147 149 1.0
e 147 148 2.0
e 147 494 1.0
e 147 389 1.0
e 148 227 1.0
e 148 237 1.0
e 148 387 1.0
e 148 243 1.0
e 149 122 1.0
e 149 178 2.0
e 149 137 1.0
e 149 485 1.0
e 150 284 2.0
e 150 611 1.0
e 150 308 1.0
e 150 628 1.0
e 151 251 2.0
e 151 496 2.0
e 151 154 1.0
e 151 365 6.0
e 152 438 1.0
e 152 523 1.0
e 152 365 19.0
e 152 285 1.0
e 153 132 1.0
e 153 388 1.0
e 153 269 1.0
e 153 414 1.0
e 154 240 3.0
e 154 310 1.0
e 154 351 19.0
e 154 232 1.0
e 155 316 1.0
e 155 243 1.0
e 155 608 1.0
e 155 404 1.0
e 156 453 5.0
e 156 52 4.0
e 156 431 23.0
e 156 246 5.0
e 157 495 4.0
e 157 565 1.0
e 157 452 2.0
e 157 23 1.0
e 158 171 1.0
e 158 185 2.0
e 158 547 1.0
e 158 6 3.0
e 159 513 1.0
e 159 41 1.0
e 159 220 1.0
e 159 122 1.0
e 160 130 1.0
e 160 556 1.0
e 160 498 1.0
e 160 144 1.0
e 161 182 1.0
e 161 331 1.0
e 161 508 1.0
e 161 420 1.0
e 162 373 1.0
e 162 442 1.0
e 162 445 1.0
e 162 262 33.0
e 163 317 2.0
e 163 24 1.0
e 163 161 2.0
e 163 516 11.0
e 164 504 1.0
e 164 160 2.0
e 164 516 38.0
e 164 618 2.0
e 165 419 1.0
e 165 485 1.0
e 165 590 1.0
e 165 414 1.0
e 166 133 2.0
e 166 365 42.0
e 166 11 1.0
e 166 183 1.0
e 167 374 1.0
e 167 289 1.0
e 167 48 1.0
e 168 225 2.0
e 168 519 2.0
e 168 235 2.0
e 168 333 1.0
e 169 461 25.0
e 169 46 14.0
e 169 109 11.0
e 169 129 31.0
e 169 170 31.0
e 169 386 9.0
e 169 66 45.0
e 169 176 46.0
e 169 39 4.0
e 170 504 48.0
e 170 26 7.0
e 170 365 13.0
e 170 479 45.0
e 170 481 12.0
e 170 581 42.0
e 170 66 5.0
e 170 558 32.0
e 170 176 2.0
e 170 325 32.0
e 170 587 48.0
e 170 369 41.0
e 171 77 1.0
e 171 5 5.0
e 171 24 1.0
e 171 102 1.0
e 172 52 1.0
e 172 537 2.0
e 172 400 1.0
e 172 482 1.0
e 173 626 2.0
e 173 531 1.0
e 173 22 1.0
e 173 428 43.0
e 174 324 2.0
e 174 349 2.0
e 174 287 1.0
e 174 404 2.0
e 175 567 1.0
e 175 247 1.0
e 175 576 1.0
e 175 236 1.0
e 176 266 18.0
e 176 40 1.0
e 176 501 1.0
e 176 588 24.0
e 176 386 45.0
e 176 184 15.0
e 176 402 41.0
e 176 190 5.0
e 176 500 38.0
e 176 34 17.0
e 176 254 11.0
e 177 89 1.0
e 177 564 1.0
e 177 479 1.0
e 177 393 1.0
e 178 124 1.0
e 178 299 1.0
e 178 9 1.0
e 178 279 1.0
e 179 356 1.0
e 179 332 2.0
e 179 67 3.0
e 179 227 1.0
e 180 474 2.0
e 180 470 1.0
e 180 551 1.0
e 180 156 1.0
e 181 531 1.0
e 181 590 1.0
e 181 295 1.0
e 181 2 1.0
e 182 207 1.0
e 182 90 1.0
e 182 597 3.0
e 182 503 2.0
e 183 295 2.0
e 183 320 1.0
e 183 576 1.0
e 183 218 1.0
e 184 134 30.0
e 184 352 36.0
e 184 401 11.0
e 184 535 35.0
e 184 170 30.0
e 184 291 3.0
e 184 169 48.0
e 184 460 37.0
e 184 254 17.0
e 184 262 13.0
e 184 313 27.0
e 185 252 1.0
e 185 422 1.0
e 185 125 1.0
e 185 553 1.0
e 186 389 1.0
e 186 385 1.0
e 186 490 1.0
e 186 511 1.0
e 187 218 1.0
e 187 153 1.0
e 187 301 1.0
e 187 217 2.0
e 188 284 1.0
e 188 398 1.0
e 188 540 2.0
e 188 229 2.0
e 189 78 2.0
e 189 439 1.0
e 189 414 1.0
e 189 143 1.0
e 190 563 49.0
e 190 140 17.0
e 190 389 32.0
e 190 147 20.0
e 190 635 16.0
e 190 612 31.0
e 190 386 46.0
e 190 219 19.0
e 190 460 28.0
e 190 254 42.0
e 190 169 25.0
e 190 428 49.0
e 190 601 8.0
e 190 170 14.0
e 191 315 1.0
e 191 286 1.0
e 191 337 1.0
e 191 578 1.0
e 192 482 1.0
e 192 578 1.0
e 192 400 2.0
e 192 127 1.0
e 193 319 1.0
e 193 385 1.0
e 193 357 1.0
e 193 96 1.0
e 194 110 1.0
e 194 602 1.0
e 194 603 1.0
e 194 621 1.0
e 195 102 3.0
e 195 72 1.0
e 195 466 2.0
e 195 494 2.0
e 196 422 1.0
e 196 625 1.0
e 196 396 2.0
e 196 34 10.0
e 197 299 1.0
e 197 454 1.0
e 197 269 1.0
e 197 94 1.0
e 198 387 1.0
e 198 572 1.0
e 198 450 1.0
e 198 268 1.0
e 199 505 1.0
e 199 487 1.0
e 199 421 1.0
e 199 201 1.0
e 200 34 7.0
e 200 184 18.0
e 200 212 1.0
e 200 552 1.0
e 201 507 1.0
e 201 146 1.0
e 201 158 2.0
e 201 114 2.0
e 202 374 1.0
e 202 103 3.0
e 202 504 2.0
e 202 537 1.0
e 203 30 1.0
e 203 594 1.0
e 203 457 1.0
e 203 563 2.0
e 204 265 1.0
e 204 385 1.0
e 204 384 1.0
e 204 519 1.0
e 205 317 1.0
e 205 152 1.0
e 205 326 2.0
e 205 167 1.0
e 206 562 1.0
e 206 334 1.0
e 206 627 11.0
e 206 414 1.0
e 207 447 2.0
e 207 348 1.0
e 207 367 3.0
e 207 115 1.0
e 208 391 2.0
e 208 432 1.0
e 208 551 1.0
e 208 638 1.0
e 209 349 1.0
e 209 524 2.0
e 209 87 1.0
e 209 141 2.0
e 210 66 28.0
e 210 288 2.0
e 210 627 4.0
e 210 345 3.0
e 211 564 2.0
e 211 595 1.0
e 211 1 1.0
e 211 129 2.0
e 212 94 1.0
e 212 299 1.0
e 212 220 2.0
e 212 195 2.0
e 213 245 1.0
e 213 494 1.0
e 213 522 1.0
e 213 324 1.0
e 214 409 1.0
e 214 58 1.0
e 214 296 1.0
e 214 74 1.0
e 215 79 1.0
e 215 351 32.0
e 215 585 1.0
e 215 356 1.0
e 216 143 1.0
e 216 579 2.0
e 216 527 1.0
e 216 444 1.0
e 217 555 2.0
e 217 131 1.0
e 217 325 14.0
e 217 268 2.0
e 218 216 3.0
e 218 633 1.0
e 218 109 2.0
e 218 343 1.0
e 219 303 46.0
e 219 401 4.0
e 219 154 42.0
e 219 98 47.0
e 219 428 48.0
e 219 500 49.0
e 219 386 27.0
e 219 402 14.0
e 219 431 19.0
e 219 169 21.0
e 219 365 37.0
e 219 170 11.0
e 220 60 1.0
e 220 255 1.0
e 220 434 1.0
e 220 627 16.0
e 221 233 2.0
e 221 620 1.0
e 221 523 1.0
e 221 26 1.0
e 222 207 1.0
e 222 552 1.0
e 222 354 1.0
e 222 605 1.0
e 223 380 1.0
e 223 593 2.0
e 223 288 1.0
e 223 148 1.0
e 224 383 1.0
e 224 408 1.0
e 224 544 1.0
e 224 393 1.0
e 225 381 44.0
e 225 70 41.0
e 225 278 16.0
e 225 329 30.0
e 225 291 42.0
e 225 62 25.0
e 225 176 27.0
e 225 313 29.0
e 225 495 16.0
e 225 190 17.0
e 225 254 33.0
e 225 428 2.0
e 225 66 24.0
e 226 264 4.0
e 226 176 3.0
e 226 126 1.0
e 226 244 1.0
e 227 157 1.0
e 227 615 3.0
e 227 370 1.0
e 227 72 1.0
e 228 431 11.0
e 228 145 1.0
e 228 287 2.0
e 228 166 1.0
e 229 131 2.0
e 229 337 1.0
e 229 276 2.0
e 229 451 1.0
e 230 563 1.0
e 230 3 2.0
e 230 374 1.0
e 231 501 1.0
e 231 24 1.0
e 231 416 1.0
e 231 235 2.0
e 232 548 3.0
e 232 310 1.0
e 232 55 2.0
e 233 452 1.0
e 233 428 6.0
e 233 575 2.0
e 233 447 1.0
e 234 588 1.0
e 234 607 2.0
e 234 556 1.0
e 234 165 1.0
e 235 329 28.0
e 235 269 1.0
e 235 98 2.0
e 235 71 1.0
e 236 554 1.0
e 236 174 1.0
e 236 16 1.0
e 236 22 1.0
e 237 213 1.0
e 237 155 1.0
e 237 19 1.0
e 237 223 1.0
e 238 4 1.0
e 238 561 1.0
e 238 483 1.0
e 238 222 1.0
e 239 135 1.0
e 239 402 27.0
e 239 581 41.0
e 239 398 1.0
e 240 188 2.0
e 240 398 1.0
e 240 618 2.0
e 240 52 1.0
e 241 445 1.0
e 241 419 1.0
e 241 410 3.0
e 241 570 2.0
e 242 583 1.0
e 242 597 3.0
e 242 376 1.0
e 242 50 2.0
e 243 71 1.0
e 243 505 1.0
e 243 537 1.0
e 243 573 1.0
e 244 194 1.0
e 244 95 1.0
e 244 12 1.0
e 244 130 2.0
e 245 527 1.0
e 245 306 1.0
e 245 575 1.0
e 245 535 1.0
e 246 2 1.0
e 246 571 1.0
e 246 222 1.0
e 246 35 2.0
e 247 435 2.0
e 247 346 25.0
e 247 456 1.0
e 247 216 1.0
e 248 463 1.0
e 248 12 2.0
e 248 325 32.0
e 248 510 3.0
e 249 491 2.0
e 249 547 2.0
e 249 470 1.0
e 249 277 1.0
e 250 368 1.0
e 250 136 1.0
e 250 407 3.0
e 250 236 1.0
e 251 284 1.0
e 251 357 1.0
e 251 131 1.0
e 251 382 1.0
e 252 413 1.0
e 252 394 3.0
e 252 25 2.0
e 252 50 1.0
e 253 563 1.0
e 253 607 1.0
e 253 377 2.0
e 253 318 1.0
e 254 464 4.0
e 254 389 42.0
e 254 127 34.0
e 254 438 30.0
e 255 36 1.0
e 255 562 1.0
e 255 126 1.0
e 255 320 1.0
e 256 435 1.0
e 256 347 1.0
e 256 296 2.0
e 256 251 1.0
e 257 90 1.0
e 257 13 7.0
e 257 569 1.0
e 257 32 1.0
e 258 417 2.0
e 258 294 1.0
e 258 404 2.0
e 258 259 1.0
e 259 478 1.0
e 259 361 2.0
e 259 122 1.0
e 259 64 1.0
e 260 213 1.0
e 260 42 1.0
e 260 424 2.0
e 260 105 1.0
e 261 137 1.0
e 261 429 1.0
e 261 254 22.0
e 261 99 1.0
e 262 515 27.0
e 262 377 44.0
e 262 348 7.0
e 262 581 38.0
e 262 34 26.0
e 262 500 35.0
e 262 313 39.0
e 262 62 2.0
e 262 365 15.0
e 262 351 49.0
e 262 329 14.0
e 262 325 12.0
e 263 196 2.0
e 263 302 1.0
e 263 211 1.0
e 263 569 1.0
e 264 550 34.0
e 264 630 25.0
e 264 27 26.0
e 264 288 15.0
e 264 219 22.0
e 264 176 39.0
e 264 325 27.0
e 264 184 48.0
e 264 624 41.0
e 264 581 28.0
e 265 261 1.0
e 265 44 2.0
e 265 427 2.0
e 265 155 1.0
e 266 589 1.0
e 266 135 1.0
e 266 280 1.0
e 266 321 2.0
e 267 28 1.0
e 267 264 9.0
e 267 461 1.0
e 267 48 1.0
e 268 596 1.0
e 268 575 3.0
e 268 175 1.0
e 268 405 3.0
e 269 473 1.0
e 269 622 1.0
e 269 575 2.0
e 269 394 1.0
e 270 250 1.0
e 270 254 49.0
e 270 279 1.0
e 270 136 1.0
e 271 335 1.0
e 271 229 1.0
e 271 234 1.0
e 271 482 1.0
e 272 308 1.0
e 272 203 1.0
e 272 191 1.0
e 272 168 1.0
e 273 293 1.0
e 273 614 1.0
e 273 412 1.0
e 273 508 1.0
e 274 439 1.0
e 274 175 2.0
e 274 290 1.0
e 274 207 1.0
e 275 6 1.0
e 275 222 1.0
e 275 565 1.0
e 275 350 1.0
e 276 546 1.0
e 276 312 1.0
e 276 458 1.0
e 276 234 1.0
e 277 544 1.0
e 277 66 20.0
e 277 410 2.0
e 277 227 1.0
e 278 354 1.0
e 278 328 2.0
e 278 327 1.0
e 278 315 1.0
e 279 179 1.0
e 279 479 2.0
e 279 20 3.0
e 279 432 1.0
e 280 14 1.0
e 280 437 46.0
e 280 37 2.0
e 280 623 1.0
e 281 222 1.0
e 281 398 1.0
e 281 625 1.0
e 281 399 1.0
e 282 63 1.0
e 282 55 1.0
e 282 9 1.0
e 282 103 1.0
e 283 241 1.0
e 283 345 1.0
e 283 421 1.0
e 283 552 1.0
e 284 331 3.0
e 284 115 1.0
e 284 244 1.0
e 284 577 1.0
e 285 151 2.0
e 285 174 1.0
e 285 592 1.0
e 285 572 1.0
e 286 24 1.0
e 286 330 2.0
e 286 482 1.0
e 286 8 3.0
e 287 557 1.0
e 287 514 41.0
e 287 82 1.0
e 287 436 1.0
e 288 222 2.0
e 288 523 2.0
e 288 616 1.0
e 288 429 1.0
e 289 69 2.0
e 289 633 1.0
e 289 248 1.0
e 289 208 2.0
e 290 248 1.0
e 290 208 1.0
e 290 499 1.0
e 290 73 1.0
e 291 625 16.0
e 291 629 17.0
e 291 548 42.0
e 291 64 19.0
e 291 62 37.0
e 291 495 40.0
e 291 176 27.0
e 291 34 8.0
e 291 190 36.0
e 292 59 1.0
e 292 22 1.0
e 292 489 1.0
e 292 80 1.0
e 293 26 1.0
e 293 633 1.0
e 293 61 1.0
e 293 112 1.0
e 294 335 1.0
e 294 130 2.0
e 294 203 1.0
e 294 86 1.0
e 295 287 1.0
e 295 216 1.0
e 295 514 8.0
e 295 18 2.0
e 296 304 1.0
e 296 441 1.0
e 296 542 1.0
e 296 66 35.0
e 297 487 1.0
e 297 626 1.0
e 297 226 1.0
e 297 357 1.0
e 298 558 28.0
e 298 91 1.0
e 298 170 33.0
e 298 354 1.0
e 299 459 1.0
e 299 266 1.0
e 299 112 3.0
e 299 364 1.0
e 300 475 1.0
e 300 467 1.0
e 300 290 1.0
e 300 248 1.0
e 301 72 1.0
e 301 140 1.0
e 301 125 1.0
e 301 123 1.0
e 302 183 2.0
e 302 145 1.0
e 302 129 2.0
e 302 455 2.0
e 303 342 1.0
e 303 393 2.0
e 303 106 1.0
e 303 614 1.0
e 304 159 1.0
e 304 353 1.0
e 304 577 1.0
e 304 390 1.0
e 305 203 1.0
e 305 291 17.0
e 305 381 1.0
e 305 399 1.0
e 306 264 10.0
e 306 19 1.0
e 306 346 6.0
e 306 185 1.0
e 307 149 1.0
e 307 291 13.0
e 307 273 1.0
e 307 206 1.0
e 308 411 1.0
e 308 81 1.0
e 308 366 1.0
e 308 19 1.0
e 309 252 1.0
e 309 423 1.0
e 309 302 1.0
e 309 453 1.0
e 310 595 1.0
e 310 366 1.0
e 310 586 1.0
e 310 335 2.0
e 311 306 1.0
e 311 592 1.0
e 311 603 1.0
e 311 482 2.0
e 312 108 2.0
e 312 491 1.0
e 312 110 1.0
e 312 557 2.0
e 313 494 40.0
e 313 508 13.0
e 313 66 27.0
e 313 238 7.0
e 313 219 5.0
e 313 365 38.0
e 313 495 44.0
e 313 500 14.0
e 313 254 30.0
e 313 428 42.0
e 313 190 2.0
e 314 69 1.0
e 314 351 4.0
e 314 210 1.0
e 314 119 1.0
e 315 131 1.0
e 315 264 13.0
e 315 549 2.0
e 315 141 1.0
e 316 12 1.0
e 316 181 1.0
e 316 515 1.0
e 316 550 1.0
e 317 295 1.0
e 317 419 1.0
e 317 459 1.0
e 317 379 1.0
e 318 178 1.0
e 318 288 1.0
e 318 47 1.0
e 318 468 1.0
e 319 87 1.0
e 319 348 1.0
e 319 145 1.0
e 319 380 1.0
e 320 7 1.0
e 320 441 1.0
e 320 493 1.0
e 320 305 1.0
e 321 258 1.0
e 321 475 1.0
e 321 5 3.0
e 321 217 1.0
e 322 443 2.0
e 322 567 2.0
e 322 119 1.0
e 322 257 2.0
e 323 490 1.0
e 323 206 2.0
e 323 235 1.0
e 323 371 2.0
e 324 57 1.0
e 324 162 1.0
e 324 113 1.0
e 324 383 1.0
e 325 137 42.0
e 325 140 39.0
e 325 26 15.0
e 325 68 39.0
e 325 184 8.0
e 325 219 38.0
e 325 495 33.0
e 326 36 2.0
e 326 103 1.0
e 326 60 1.0
e 326 151 2.0
e 327 582 1.0
e 327 212 1.0
e 327 610 1.0
e 327 490 1.0
e 328 571 1.0
e 328 94 1.0
e 328 182 2.0
e 328 109 3.0
e 329 49 49.0
e 329 93 4.0
e 329 384 29.0
e 329 153 23.0
e 329 184 22.0
e 329 558 5.0
e 329 365 26.0
e 329 581 18.0
e 329 587 17.0
e 329 254 40.0
e 329 313 14.0
e 329 601 42.0
e 330 30 2.0
e 330 249 2.0
e 330 143 1.0
e 330 319 1.0
e 331 160 1.0
e 331 222 1.0
e 331 44 1.0
e 331 149 1.0
e 332 44 1.0
e 332 228 2.0
e 332 541 2.0
e 332 273 3.0
e 333 5 30.0
e 333 620 2.0
e 333 572 3.0
e 333 336 3.0
e 334 185 1.0
e 334 604 1.0
e 334 635 35.0
e 334 218 2.0
e 335 554 1.0
e 335 289 1.0
e 335 498 1.0
e 335 249 2.0
e 336 348 2.0
e 336 90 1.0
e 336 112 1.0
e 336 307 2.0
e 337 349 1.0
e 337 541 2.0
e 337 388 1.0
e 337 241 1.0
e 338 605 1.0
e 338 233 2.0
e 338 574 2.0
e 338 567 3.0
e 339 567 2.0
e 339 267 1.0
e 339 595 1.0
e 339 476 2.0
e 340 118 1.0
e 340 320 1.0
e 340 594 1.0
e 340 311 1.0
e 341 498 1.0
e 341 132 1.0
e 341 351 46.0
e 341 627 24.0
e 342 231 1.0
e 342 332 1.0
e 342 362 1.0
e 342 116 1.0
e 343 599 1.0
e 343 367 2.0
e 343 68 1.0
e 343 16 2.0
e 344 105 1.0
e 344 464 2.0
e 344 513 1.0
e 344 210 1.0
e 345 588 1.0
e 345 558 28.0
e 345 572 2.0
e 345 537 1.0
e 346 334 24.0
e 346 552 21.0
e 346 229 43.0
e 346 96 34.0
e 346 428 46.0
e 346 325 46.0
e 346 225 14.0
e 346 254 49.0
e 346 635 29.0
e 346 558 18.0
e 346 262 41.0
e 346 264 38.0
e 347 550 1.0
e 347 243 1.0
e 347 17 1.0
e 347 572 1.0
e 348 578 1.0
e 348 451 1.0
e 348 222 1.0
e 348 507 1.0
e 349 307 2.0
e 349 636 1.0
e 349 150 1.0
e 349 242 1.0
e 350 586 1.0
e 350 295 2.0
e 350 53 1.0
e 350 476 1.0
e 351 305 41.0
e 351 116 8.0
e 351 500 48.0
e 351 80 30.0
e 351 428 28.0
e 351 495 2.0
e 351 460 45.0
e 351 365 16.0
e 351 225 39.0
e 351 558 11.0
e 352 503 1.0
e 352 613 1.0
e 352 200 2.0
e 352 370 1.0
e 353 258 1.0
e 353 51 1.0
e 353 193 1.0
e 353 312 1.0
e 354 157 3.0
e 354 283 1.0
e 354 366 1.0
e 354 628 1.0
e 355 287 1.0
e 355 519 2.0
e 355 5 44.0
e 355 388 2.0
e 356 306 1.0
e 356 424 2.0
e 356 350 1.0
e 356 150 1.0
e 357 592 2.0
e 357 273 1.0
e 357 194 2.0
e 357 327 1.0
e 358 557 1.0
e 358 91 1.0
e 358 328 1.0
e 358 410 2.0
e 359 210 2.0
e 359 429 1.0
e 359 264 32.0
e 359 497 2.0
e 360 328 2.0
e 360 464 2.0
e 360 633 1.0
e 361 132 1.0
e 361 325 31.0
e 361 21 1.0
e 361 362 1.0
e 362 110 1.0
e 362 122 1.0
e 362 97 2.0
e 362 464 1.0
e 363 604 1.0
e 363 221 1.0
e 363 31 2.0
e 363 454 1.0
e 364 518 1.0
e 364 416 1.0
e 364 260 3.0
e 364 340 1.0
e 365 434 17.0
e 365 381 16.0
e 365 321 47.0
e 365 621 33.0
e 365 264 34.0
e 365 225 40.0
e 366 343 2.0
e 366 126 1.0
e 366 271 1.0
e 366 492 1.0
e 367 348 1.0
e 367 264 25.0
e 367 103 1.0
e 367 3 1.0
e 368 55 1.0
e 368 417 1.0
e 368 586 1.0
e 368 267 2.0
e 369 191 1.0
e 369 221 1.0
e 369 23 2.0
e 369 351 24.0
e 370 105 1.0
e 370 562 2.0
e 370 339 1.0
e 370 328 1.0
e 371 62 44.0
e 371 600 1.0
e 371 278 1.0
e 372 240 1.0
e 372 221 1.0
e 372 278 2.0
e 372 208 1.0
e 373 215 1.0
e 373 203 1.0
e 373 338 1.0
e 373 173 1.0
e 374 272 1.0
e 374 614 2.0
e 374 190 47.0
e 375 575 1.0
e 375 6 1.0
e 375 122 1.0
e 375 51 1.0
e 376 416 2.0
e 376 300 2.0
e 376 138 1.0
e 376 256 1.0
e 377 28 2.0
e 377 298 1.0
e 377 61 1.0
e 377 203 2.0
e 378 47 1.0
e 378 150 2.0
e 378 344 1.0
e 378 102 2.0
e 379 487 1.0
e 379 237 1.0
e 379 224 1.0
e 379 476 2.0
e 380 21 1.0
e 380 619 1.0
e 380 3 1.0
e 380 580 3.0
e 381 269 1.0
e 381 359 1.0
e 381 275 2.0
e 381 468 1.0
e 382 578 2.0
e 382 603 1.0
e 382 51 1.0
e 382 614 1.0
e 383 209 1.0
e 383 524 2.0
e 383 373 2.0
e 383 67 2.0
e 384 630 2.0
e 384 196 3.0
e 384 492 2.0
e 384 636 1.0
e 385 257 1.0
e 385 265 1.0
e 385 391 1.0
e 385 0 1.0
e 386 34 4.0
e 386 580 37.0
e 386 415 49.0
e 386 516 27.0
e 386 329 33.0
e 386 431 22.0
e 386 262 14.0
e 386 264 28.0
e 386 291 24.0
e 386 313 26.0
e 387 320 1.0
e 387 628 1.0
e 387 463 1.0
e 387 66 39.0
e 388 566 1.0
e 388 320 1.0
e 388 569 1.0
e 388 239 1.0
e 389 442 1.0
e 389 127 1.0
e 389 91 1.0
e 389 488 1.0
e 390 135 2.0
e 390 205 1.0
e 390 469 5.0
e 390 441 2.0
e 391 12 1.0
e 391 171 1.0
e 391 392 1.0
e 391 20 2.0
e 392 308 1.0
e 392 107 1.0
e 392 238 1.0
e 392 94 1.0
e 393 182 1.0
e 393 534 2.0
e 393 62 7.0
e 393 459 1.0
e 394 156 1.0
e 394 85 1.0
e 394 15 2.0
e 394 469 4.0
e 395 244 1.0
e 395 128 1.0
e 395 182 2.0
e 395 614 1.0
e 396 301 1.0
e 396 500 4.0
e 396 349 1.0
e 396 185 1.0
e 397 208 1.0
e 397 579 1.0
e 397 460 47.0
e 397 106 1.0
e 398 217 2.0
e 398 624 49.0
e 398 268 1.0
e 398 529 1.0
e 399 566 1.0
e 399 601 4.0
e 399 159 1.0
e 400 114 2.0
e 400 565 1.0
e 400 406 1.0
e 400 563 2.0
e 401 403 2.0
e 401 404 1.0
e 401 327 1.0
e 401 633 1.0
e 402 208 20.0
e 402 600 13.0
e 402 234 11.0
e 402 312 16.0
e 402 428 8.0
e 402 262 46.0
e 402 291 10.0
e 402 386 7.0
e 402 558 39.0
e 402 431 32.0
e 402 437 20.0
e 402 313 29.0
e 403 106 2.0
e 403 99 1.0
e 403 515 1.0
e 403 324 3.0
e 404 167 1.0
e 404 254 27.0
e 404 84 1.0
e 404 386 43.0
e 405 430 2.0
e 405 233 1.0
e 405 176 21.0
e 405 620 1.0
e 406 187 1.0
e 406 545 1.0
e 406 178 1.0
e 406 70 3.0
e 407 329 9.0
e 407 602 1.0
e 407 539 3.0
e 407 466 1.0
e 408 257 1.0
e 408 541 2.0
e 408 577 1.0
e 408 195 2.0
e 409 497 1.0
e 409 549 1.0
e 409 194 1.0
e 409 579 2.0
e 410 88 1.0
e 410 496 1.0
e 410 570 1.0
e 410 225 26.0
e 411 629 1.0
e 411 340 1.0
e 411 274 2.0
e 411 275 1.0
e 412 242 1.0
e 412 18 1.0
e 412 75 2.0
e 412 534 1.0
e 413 20 1.0
e 413 306 1.0
e 413 488 1.0
e 413 299 1.0
e 414 572 2.0
e 414 586 1.0
e 414 86 1.0
e 414 515 1.0
e 415 52 1.0
e 415 566 1.0
e 415 348 1.0
e 415 574 3.0
e 416 380 1.0
e 416 499 1.0
e 416 587 8.0
e 416 466 1.0
e 417 167 1.0
e 417 579 2.0
e 417 6 1.0
e 417 244 1.0
e 418 292 1.0
e 418 251 1.0
e 418 237 1.0
e 418 248 1.0
e 419 156 1.0
e 419 597 4.0
e 419 113 1.0
e 419 530 1.0
e 420 24 1.0
e 420 4 1.0
e 420 320 1.0
e 420 573 1.0
e 421 531 1.0
e 421 118 1.0
e 421 27 2.0
e 422 367 3.0
e 422 592 1.0
e 422 212 1.0
e 422 216 1.0
e 423 291 9.0
e 423 263 1.0
e 423 2 1.0
e 423 500 49.0
e 424 22 3.0
e 424 178 1.0
e 424 603 2.0
e 424 564 1.0
e 425 312 1.0
e 425 363 1.0
e 425 82 1.0
e 425 482 2.0
e 426 365 16.0
e 426 91 2.0
e 426 177 1.0
e 426 620 1.0
e 427 480 1.0
e 427 124 1.0
e 427 249 1.0
e 427 245 1.0
e 428 398 14.0
e 428 37 33.0
e 428 573 20.0
e 428 582 2.0
e 429 182 1.0
e 429 445 1.0
e 429 133 1.0
e 429 84 1.0
e 430 615 3.0
e 430 117 2.0
e 430 449 1.0
e 430 133 1.0
e 431 265 30.0
e 431 322 40.0
e 431 123 46.0
e 431 11 33.0
e 431 291 40.0
e 431 325 42.0
e 431 329 38.0
e 431 346 5.0
e 431 351 12.0
e 431 365 17.0
e 431 428 34.0
e 432 123 2.0
e 432 77 1.0
e 432 203 1.0
e 432 511 2.0
e 433 166 1.0
e 433 353 2.0
e 433 450 3.0
e 433 205 2.0
e 434 262 46.0
e 434 344 1.0
e 434 23 1.0
e 434 212 1.0
e 435 218 3.0
e 435 306 1.0
e 435 505 1.0
e 435 254 34.0
e 436 420 1.0
e 436 159 1.0
e 436 232 1.0
e 436 443 1.0
e 437 376 37.0
e 437 403 31.0
e 437 310 47.0
e 437 578 48.0
e 437 506 4.0
e 437 325 35.0
e 437 581 34.0
e 437 601 23.0
e 437 329 2.0
e 437 346 2.0
e 437 351 43.0
e 438 32 1.0
e 438 533 1.0
e 438 102 1.0
e 438 342 1.0
e 439 585 1.0
e 439 476 1.0
e 439 109 1.0
e 439 265 2.0
e 440 335 1.0
e 440 33 1.0
e 440 584 1.0
e 440 77 1.0
e 441 478 1.0
e 441 636 1.0
e 441 474 1.0
e 441 416 1.0
e 442 48 1.0
e 442 504 2.0
e 442 323 1.0
e 442 558 10.0
e 443 15 1.0
e 443 221 1.0
e 443 299 1.0
e 443 170 30.0
e 444 427 2.0
e 444 435 2.0
e 444 261 1.0
e 444 581 3.0
e 445 187 1.0
e 445 273 1.0
e 445 618 1.0
e 445 544 2.0
e 446 103 1.0
e 446 188 1.0
e 446 451 1.0
e 446 33 1.0
e 447 103 2.0
e 447 63 1.0
e 447 587 49.0
e 447 251 2.0
e 448 35 2.0
e 448 211 1.0
e 448 28 1.0
e 448 570 1.0
e 449 387 1.0
e 449 6 1.0
e 449 403 2.0
e 449 343 2.0
e 450 35 2.0
e 450 303 1.0
e 450 79 1.0
e 450 41 2.0
e 451 394 1.0
e 451 16 1.0
e 451 592 1.0
e 451 234 1.0
e 452 518 1.0
e 452 345 2.0
e 452 553 1.0
e 452 489 1.0
e 453 430 1.0
e 453 600 1.0
e 453 405 2.0
e 453 244 1.0
e 454 31 2.0
e 454 48 1.0
e 454 148 1.0
e 454 268 1.0
e 455 299 1.0
e 455 400 1.0
e 455 232 1.0
e 455 350 1.0
e 456 628 1.0
e 456 314 1.0
e 456 426 2.0
e 456 48 2.0
e 457 58 2.0
e 457 54 1.0
e 457 435 1.0
e 457 469 2.0
e 458 164 2.0
e 458 570 1.0
e 458 377 1.0
e 458 338 1.0
e 459 397 2.0
e 459 143 1.0
e 459 298 1.0
e 459 55 1.0
e 460 258 40.0
e 460 396 8.0
e 460 232 46.0
e 460 60 5.0
e 460 346 46.0
e 460 365 16.0
e 460 495 14.0
e 460 402 26.0
e 460 386 19.0
e 461 243 1.0
e 461 470 1.0
e 461 592 1.0
e 461 628 1.0
e 462 424 3.0
e 462 475 1.0
e 462 177 1.0
e 462 498 1.0
e 463 5 39.0
e 463 132 2.0
e 463 504 1.0
e 463 484 1.0
e 464 446 1.0
e 464 492 1.0
e 464 181 1.0
e 464 125 2.0
e 465 338 1.0
e 465 146 1.0
e 465 124 1.0
e 465 475 1.0
e 466 530 1.0
e 466 38 1.0
e 466 15 1.0
e 466 284 2.0
e 467 93 1.0
e 467 45 1.0
e 467 184 42.0
e 467 583 1.0
e 468 294 1.0
e 468 355 1.0
e 468 163 1.0
e 468 79 1.0
e 469 460 31.0
e 469 561 1.0
e 469 101 1.0
e 469 125 3.0
e 470 546 1.0
e 470 203 1.0
e 470 366 1.0
e 470 523 1.0
e 471 554 1.0
e 471 234 1.0
e 471 577 1.0
e 471 322 2.0
e 472 294 2.0
e 472 133 1.0
e 472 493 1.0
e 472 593 1.0
e 473 27 3.0
e 473 59 1.0
e 473 547 1.0
e 474 472 2.0
e 474 100 3.0
e 474 98 1.0
e 474 365 31.0
e 475 578 2.0
e 475 127 1.0
e 475 575 2.0
e 475 453 1.0
e 476 534 1.0
e 476 34 34.0
e 476 182 1.0
e 476 36 1.0
e 477 121 2.0
e 477 155 1.0
e 477 13 31.0
e 477 48 2.0
e 478 556 1.0
e 478 636 1.0
e 478 56 1.0
e 478 125 1.0
e 479 117 2.0
e 479 211 2.0
e 479 75 1.0
e 479 382 2.0
e 480 153 1.0
e 480 174 2.0
e 480 160 1.0
e 480 289 1.0
e 481 115 2.0
e 481 558 32.0
e 481 393 2.0
e 481 289 2.0
e 482 475 1.0
e 482 413 1.0
e 482 358 1.0
e 482 602 1.0
e 483 551 1.0
e 483 229 2.0
e 483 424 1.0
e 483 370 1.0
e 484 549 1.0
e 484 182 2.0
e 484 9 1.0
e 484 196 2.0
e 485 577 1.0
e 485 110 1.0
e 485 154 1.0
e 485 57 1.0
e 486 29 1.0
e 486 472 1.0
e 486 494 1.0
e 486 3 1.0
e 487 315 1.0
e 487 559 1.0
e 487 422 1.0
e 487 298 1.0
e 488 172 1.0
e 488 550 2.0
e 488 52 1.0
e 488 427 1.0
e 489 72 1.0
e 489 462 1.0
e 489 634 1.0
e 489 255 1.0
e 490 40 2.0
e 490 228 2.0
e 490 360 1.0
e 490 88 2.0
e 491 408 1.0
e 491 288 2.0
e 491 371 1.0
e 491 85 1.0
e 492 87 1.0
e 492 394 1.0
e 492 174 1.0
e 492 251 1.0
e 493 203 1.0
e 493 486 1.0
e 493 35 1.0
e 493 121 1.0
e 494 382 1.0
e 494 397 1.0
e 494 191 2.0
e 494 322 1.0
e 495 218 12.0
e 495 529 6.0
e 495 19 23.0
e 495 162 10.0
e 495 365 2.0
e 496 259 1.0
e 496 610 2.0
e 496 554 1.0
e 496 325 4.0
e 497 530 1.0
e 497 452 1.0
e 497 89 2.0
e 497 399 1.0
e 498 81 1.0
e 498 578 1.0
e 498 359 2.0
e 498 496 3.0
e 499 582 1.0
e 499 19 1.0
e 499 232 1.0
e 499 436 1.0
e 500 257 42.0
e 500 621 9.0
e 500 326 47.0
e 500 579 3.0
e 500 581 30.0
e 500 386 11.0
e 500 402 9.0
e 500 428 6.0
e 501 78 1.0
e 501 530 1.0
e 501 407 1.0
e 501 440 1.0
e 502 261 1.0
e 502 473 1.0
e 502 279 1.0
e 502 382 1.0
e 503 335 1.0
e 503 391 2.0
e 503 263 2.0
e 503 76 2.0
e 504 211 2.0
e 504 444 1.0
e 504 97 2.0
e 504 436 1.0
e 505 319 1.0
e 505 496 1.0
e 505 155 1.0
e 505 347 1.0
e 506 243 1.0
e 506 419 1.0
e 506 108 2.0
e 506 449 2.0
e 507 293 1.0
e 507 404 1.0
e 507 562 3.0
e 507 471 1.0
e 508 224 2.0
e 508 554 1.0
e 508 135 3.0
e 508 238 2.0
e 509 315 1.0
e 509 473 2.0
e 509 159 1.0
e 509 101 2.0
e 510 8 3.0
e 510 447 1.0
e 510 578 2.0
e 510 150 1.0
e 511 169 5.0
e 511 179 1.0
e 511 418 1.0
e 511 463 1.0
e 512 55 27.0
e 512 311 36.0
e 512 597 5.0
e 512 73 46.0
e 512 351 23.0
e 512 402 3.0
e 512 428 2.0
e 512 431 36.0
e 512 437 41.0
e 512 460 38.0
e 512 495 18.0
e 512 601 3.0
e 512 500 27.0
e 512 509 38.0
e 512 514 36.0
e 512 516 36.0
e 512 581 19.0
e 513 544 1.0
e 513 14 1.0
e 513 447 2.0
e 513 483 1.0
e 514 142 31.0
e 514 49 47.0
e 514 433 22.0
e 514 441 45.0
e 514 431 13.0
e 514 437 28.0
e 514 460 36.0
e 514 495 44.0
e 514 500 8.0
e 514 581 5.0
e 514 516 45.0
e 515 86 1.0
e 515 100 2.0
e 515 294 1.0
e 515 255 1.0
e 516 149 26.0
e 516 46 29.0
e 516 100 3.0
e 516 328 43.0
e 516 431 11.0
e 516 437 34.0
e 516 460 30.0
e 516 495 43.0
e 516 500 10.0
e 516 581 44.0
e 516 587 17.0
e 517 430 1.0
e 517 104 2.0
e 517 204 3.0
e 517 86 2.0
e 518 73 1.0
e 518 478 1.0
e 518 513 1.0
e 518 579 2.0
e 519 318 1.0
e 519 201 1.0
e 519 162 1.0
e 519 16 2.0
e 520 55 1.0
e 520 530 1.0
e 520 367 1.0
e 520 88 1.0
e 521 88 3.0
e 521 447 1.0
e 521 440 1.0
e 521 185 1.0
e 522 489 1.0
e 522 203 1.0
e 522 350 1.0
e 522 321 1.0
e 523 420 1.0
e 523 378 2.0
e 523 33 1.0
e 523 143 1.0
e 524 324 1.0
e 524 631 1.0
e 524 390 1.0
e 524 77 1.0
e 525 340 1.0
e 525 91 1.0
e 525 285 1.0
e 525 338 1.0
e 526 68 1.0
e 526 289 1.0
e 526 423 1.0
e 526 495 29.0
e 527 510 1.0
e 527 322 3.0
e 527 119 1.0
e 527 87 1.0
e 528 26 2.0
e 528 485 1.0
e 528 327 1.0
e 528 426 2.0
e 529 166 1.0
e 529 246 1.0
e 529 345 1.0
e 529 514 11.0
e 530 374 1.0
e 530 298 1.0
e 530 420 1.0
e 530 566 1.0
e 531 571 1.0
e 531 517 1.0
e 531 420 1.0
e 531 261 1.0
e 532 336 1.0
e 532 585 1.0
e 532 325 13.0
e 532 310 2.0
e 533 479 2.0
e 533 177 1.0
e 533 395 1.0
e 533 180 1.0
e 534 442 1.0
e 534 202 1.0
e 534 156 4.0
e 534 298 1.0
e 535 437 30.0
e 535 548 1.0
e 535 562 1.0
e 535 595 1.0
e 536 138 2.0
e 536 373 1.0
e 536 66 30.0
e 536 433 2.0
e 537 487 2.0
e 537 264 6.0
e 537 98 2.0
e 537 401 2.0
e 538 111 1.0
e 538 118 1.0
e 538 456 1.0
e 538 234 1.0
e 539 73 1.0
e 539 445 1.0
e 539 403 1.0
e 539 483 1.0
e 540 558 29.0
e 540 319 1.0
e 540 463 1.0
e 540 352 2.0
e 541 579 1.0
e 541 500 16.0
e 541 270 1.0
e 542 320 1.0
e 542 141 1.0
e 542 229 2.0
e 542 138 1.0
e 543 189 1.0
e 543 24 1.0
e 543 581 27.0
e 543 438 1.0
e 544 20 1.0
e 544 607 1.0
e 544 354 3.0
e 544 349 1.0
e 545 266 2.0
e 545 10 1.0
e 545 323 1.0
e 545 491 1.0
e 546 495 36.0
e 546 188 2.0
e 546 362 2.0
e 546 164 1.0
e 547 110 1.0
e 547 138 1.0
e 547 257 1.0
e 547 597 1.0
e 548 4 2.0
e 548 23 3.0
e 548 106 1.0
e 548 149 1.0
e 549 79 1.0
e 549 449 1.0
e 549 492 1.0
e 549 242 1.0
e 550 617 2.0
e 550 602 1.0
e 550 376 2.0
e 550 520 2.0
e 551 286 1.0
e 551 613 1.0
e 551 522 2.0
e 551 45 1.0
e 552 361 1.0
e 552 584 1.0
e 552 428 35.0
e 552 526 3.0
e 553 432 1.0
e 553 278 1.0
e 553 505 1.0
e 553 19 1.0
e 554 237 1.0
e 554 387 2.0
e 554 352 2.0
e 554 18 1.0
e 555 586 1.0
e 555 141 1.0
e 555 491 1.0
e 555 609 1.0
e 556 536 2.0
e 556 613 1.0
e 556 440 1.0
e 556 371 2.0
e 557 61 1.0
e 557 70 1.0
e 557 464 1.0
e 557 629 1.0
e 558 23 20.0
e 558 139 46.0
e 558 120 44.0
e 558 34 21.0
e 559 397 2.0
e 559 36 1.0
e 559 52 1.0
e 559 96 1.0
e 560 528 1.0
e 560 305 1.0
e 560 188 1.0
e 560 466 1.0
e 561 281 3.0
e 561 213 1.0
e 561 214 1.0
e 561 526 1.0
e 562 35 2.0
e 562 351 29.0
e 562 456 2.0
e 562 584 2.0
e 563 447 1.0
e 563 228 2.0
e 563 568 2.0
e 563 604 3.0
e 564 223 1.0
e 564 137 1.0
e 564 254 5.0
e 564 517 1.0
e 565 326 1.0
e 565 128 1.0
e 565 470 1.0
e 565 467 1.0
e 566 464 2.0
e 566 18 2.0
e 566 367 2.0
e 566 165 1.0
e 567 123 2.0
e 567 190 46.0
e 567 148 1.0
e 567 23 2.0
e 568 324 1.0
e 568 183 1.0
e 568 165 1.0
e 568 420 1.0
e 569 614 1.0
e 569 392 1.0
e 569 473 1.0
e 569 513 1.0
e 570 438 1.0
e 570 496 3.0
e 570 514 44.0
e 570 94 1.0
e 571 434 1.0
e 571 182 1.0
e 571 462 1.0
e 571 461 1.0
e 572 69 1.0
e 572 500 40.0
e 572 128 1.0
e 572 136 2.0
e 573 443 2.0
e 573 63 2.0
e 573 163 2.0
e 573 273 1.0
e 574 599 1.0
e 574 85 2.0
e 574 98 1.0
e 574 202 1.0
e 575 379 1.0
e 575 178 3.0
e 575 424 1.0
e 575 533 1.0
e 576 407 2.0
e 576 47 1.0
e 576 389 1.0
e 576 526 1.0
e 577 316 1.0
e 577 136 1.0
e 577 601 18.0
e 577 23 1.0
e 578 236 2.0
e 578 258 2.0
e 578 179 2.0
e 578 275 2.0
e 579 498 1.0
e 579 445 1.0
e 579 474 2.0
e 580 91 1.0
e 580 613 1.0
e 580 298 2.0
e 580 398 1.0
e 581 343 37.0
e 581 521 48.0
e 581 380 9.0
e 581 69 27.0
e 582 247 1.0
e 582 169 44.0
e 582 472 3.0
e 582 235 1.0
e 583 553 1.0
e 583 47 1.0
e 583 474 1.0
e 583 418 1.0
e 584 465 1.0
e 584 347 1.0
e 584 125 1.0
e 584 596 1.0
e 585 69 2.0
e 585 303 1.0
e 585 490 1.0
e 585 195 1.0
e 586 135 2.0
e 586 608 1.0
e 586 47 1.0
e 586 306 1.0
e 587 200 47.0
e 587 425 6.0
e 587 313 8.0
e 587 239 28.0
e 587 512 28.0
e 587 624 13.0
e 587 635 37.0
e 588 366 1.0
e 588 416 1.0
e 588 44 1.0
e 588 394 2.0
e 589 129 1.0
e 589 502 1.0
e 589 306 1.0
e 589 406 1.0
e 590 253 1.0
e 590 548 2.0
e 590 557 1.0
e 590 449 1.0
e 591 84 1.0
e 591 380 2.0
e 591 127 1.0
e 591 144 1.0
e 592 613 1.0
e 592 7 1.0
e 592 339 1.0
e 592 441 1.0
e 593 313 13.0
e 593 415 1.0
e 593 363 1.0
e 593 321 1.0
e 594 395 1.0
e 594 409 1.0
e 594 614 1.0
e 594 228 1.0
e 595 532 3.0
e 595 403 1.0
e 595 10 1.0
e 595 393 2.0
e 596 181 1.0
e 596 444 2.0
e 596 73 1.0
e 596 554 1.0
e 597 628 1.0
e 597 617 1.0
e 597 245 6.0
e 597 77 3.0
e 598 407 1.0
e 598 372 1.0
e 598 379 1.0
e 598 297 1.0
e 599 207 1.0
e 599 269 1.0
e 599 140 1.0
e 599 360 1.0
e 600 183 1.0
e 600 215 2.0
e 600 199 1.0
e 600 127 1.0
e 601 600 42.0
e 601 58 35.0
e 601 219 11.0
e 601 281 45.0
e 601 514 46.0
e 601 516 37.0
e 601 581 10.0
e 601 13 11.0
e 601 624 43.0
e 602 460 38.0
e 602 53 1.0
e 602 427 1.0
e 602 572 1.0
e 603 314 1.0
e 603 198 1.0
e 603 90 1.0
e 603 26 1.0
e 604 601 21.0
e 604 587 31.0
e 604 399 1.0
e 604 128 1.0
e 605 480 1.0
e 605 594 1.0
e 605 153 1.0
e 605 28 1.0
e 606 286 2.0
e 606 251 1.0
e 606 72 1.0
e 606 454 1.0
e 607 442 1.0
e 607 629 2.0
e 607 353 1.0
e 607 56 1.0
e 608 281 1.0
e 608 392 1.0
e 608 31 1.0
e 608 125 1.0
e 609 225 1.0
e 609 106 3.0
e 609 505 2.0
e 609 583 1.0
e 610 132 1.0
e 610 409 1.0
e 610 295 2.0
e 610 22 1.0
e 611 51 1.0
e 611 232 2.0
e 611 202 1.0
e 611 610 1.0
e 612 47 1.0
e 612 238 2.0
e 612 574 1.0
e 612 161 1.0
e 613 6 1.0
e 613 324 1.0
e 613 578 1.0
e 613 302 1.0
e 614 255 1.0
e 614 533 1.0
e 614 143 1.0
e 614 620 1.0
e 615 265 1.0
e 615 614 2.0
e 615 291 44.0
e 615 152 1.0
e 616 267 1.0
e 616 551 1.0
e 616 60 1.0
e 616 482 1.0
e 617 334 1.0
e 617 363 1.0
e 617 367 1.0
e 617 6 1.0
e 618 270 1.0
e 618 285 1.0
e 618 20 1.0
e 618 261 1.0
e 619 628 1.0
e 619 94 1.0
e 619 565 1.0
e 619 232 2.0
e 620 298 1.0
e 620 96 1.0
e 620 626 2.0
e 620 349 1.0
e 621 592 1.0
e 621 183 1.0
e 621 462 1.0
e 621 532 1.0
e 622 85 1.0
e 622 183 1.0
e 622 571 1.0
e 622 487 1.0
e 623 271 1.0
e 623 544 1.0
e 623 597 2.0
e 623 435 1.0
e 624 195 32.0
e 624 400 5.0
e 624 396 43.0
e 624 252 33.0
e 624 512 25.0
e 624 635 38.0
e 624 514 43.0
e 624 516 18.0
e 624 627 14.0
e 624 639 30.0
e 624 5 6.0
e 625 223 1.0
e 625 421 1.0
e 625 629 1.0
e 626 196 1.0
e 626 244 2.0
e 626 545 1.0
e 626 260 1.0
e 627 519 30.0
e 627 46 34.0
e 627 48 31.0
e 627 344 10.0
e 627 512 25.0
e 627 587 33.0
e 627 601 20.0
e 627 514 16.0
e 627 516 18.0
e 627 635 27.0
e 628 583 1.0
e 628 611 1.0
e 628 604 1.0
e 628 4 1.0
e 629 357 1.0
e 629 151 1.0
e 629 178 1.0
e 629 318 2.0
e 630 306 1.0
e 630 565 2.0
e 630 205 1.0
e 630 15 1.0
e 631 34 41.0
e 631 137 3.0
e 631 73 1.0
e 631 366 3.0
e 632 192 1.0
e 632 186 2.0
e 632 542 1.0
e 632 406 1.0
e 633 152 1.0
e 633 503 3.0
e 633 453 1.0
e 633 230 1.0
e 634 13 7.0
e 634 184 33.0
e 634 99 1.0
e 634 494 1.0
e 635 169 14.0
e 635 299 49.0
e 635 626 46.0
e 635 484 14.0
e 635 601 18.0
e 635 5 45.0
e 636 272 1.0
e 636 343 1.0
e 636 368 1.0
e 636 312 1.0
e 637 505 1.0
e 637 297 1.0
e 637 326 2.0
e 637 52 1.0
e 638 147 2.0
e 638 613 1.0
e 638 467 1.0
e 638 493 1.0
e 639 386 40.0
e 639 326 1.0
e 639 492 2.0
e 639 90 1.0
